N = 646;
M = 1632;
Edge_Start = [1, 1, 2, 3, 3, 4, 5, 5, 6, 7, 7, 8, 10, 11, 11, 12, 13, 13, 14, 15, 15, 16, 17, 18, 19, 19, 20, 21, 21, 22, 23, 23, 24, 25, 25, 27, 27, 28, 29, 30, 31, 32, 33, 33, 34, 35, 36, 37, 37, 38, 39, 39, 40, 41, 41, 42, 43, 43, 44, 45, 45, 46, 47, 47, 48, 49, 49, 50, 51, 51, 52, 53, 53, 54, 55, 55, 56, 57, 57, 58, 59, 59, 60, 61, 62, 63, 63, 64, 65, 65, 66, 67, 67, 68, 69, 70, 71, 72, 72, 73, 74, 74, 75, 76, 76, 77, 78, 78, 79, 80, 80, 81, 82, 83, 84, 84, 85, 86, 86, 87, 88, 88, 90, 90, 91, 92, 92, 93, 94, 94, 95, 96, 97, 98, 98, 99, 100, 100, 101, 102, 102, 103, 104, 105, 106, 106, 108, 109, 109, 110, 111, 111, 112, 113, 113, 114, 115, 116, 117, 117, 118, 119, 120, 121, 121, 122, 123, 123, 124, 125, 125, 126, 127, 127, 128, 129, 129, 131, 131, 132, 133, 134, 135, 136, 137, 137, 138, 139, 139, 140, 141, 142, 144, 144, 146, 147, 148, 148, 150, 151, 152, 152, 153, 154, 154, 155, 156, 157, 158, 158, 159, 160, 160, 161, 162, 162, 164, 164, 165, 166, 166, 167, 168, 168, 170, 171, 172, 172, 173, 174, 174, 175, 176, 176, 177, 178, 180, 181, 181, 182, 183, 183, 184, 185, 185, 186, 187, 187, 188, 189, 190, 191, 191, 192, 193, 193, 195, 195, 196, 197, 197, 198, 199, 199, 200, 201, 201, 202, 203, 204, 205, 206, 207, 207, 208, 209, 209, 210, 211, 211, 212, 213, 213, 214, 215, 216, 216, 217, 218, 218, 219, 220, 220, 221, 222, 222, 223, 225, 226, 227, 228, 229, 230, 231, 232, 232, 233, 234, 234, 236, 236, 237, 238, 238, 239, 240, 240, 241, 242, 242, 243, 244, 244, 245, 246, 247, 248, 248, 249, 250, 252, 253, 254, 255, 256, 257, 257, 258, 259, 259, 260, 261, 261, 262, 263, 263, 264, 265, 265, 267, 268, 269, 269, 270, 271, 271, 272, 273, 273, 274, 275, 276, 277, 277, 278, 279, 279, 280, 281, 281, 282, 283, 283, 284, 285, 285, 286, 287, 288, 288, 289, 290, 290, 291, 292, 292, 293, 294, 295, 296, 296, 297, 298, 298, 299, 300, 300, 301, 302, 302, 304, 304, 306, 306, 308, 308, 309, 310, 310, 311, 312, 312, 313, 314, 314, 316, 316, 317, 318, 318, 320, 320, 321, 322, 322, 324, 325, 325, 326, 327, 327, 328, 329, 329, 330, 331, 331, 332, 333, 333, 334, 335, 335, 336, 337, 338, 339, 339, 341, 341, 342, 343, 343, 344, 345, 345, 346, 347, 347, 348, 349, 350, 351, 352, 353, 353, 355, 355, 356, 357, 357, 358, 359, 360, 361, 362, 362, 363, 364, 364, 365, 366, 366, 368, 368, 369, 370, 370, 371, 372, 372, 373, 374, 374, 376, 377, 378, 379, 380, 380, 381, 382, 382, 383, 384, 385, 386, 386, 388, 388, 390, 390, 391, 392, 392, 393, 394, 396, 397, 397, 398, 399, 399, 400, 401, 401, 403, 403, 404, 405, 405, 406, 407, 407, 408, 409, 409, 411, 411, 412, 413, 413, 414, 415, 415, 416, 417, 418, 419, 420, 421, 422, 423, 423, 424, 425, 425, 426, 427, 427, 428, 429, 429, 430, 431, 432, 433, 434, 435, 436, 436, 437, 438, 438, 439, 440, 440, 441, 442, 442, 443, 444, 444, 446, 446, 447, 448, 449, 450, 450, 451, 452, 452, 453, 454, 454, 456, 456, 457, 458, 460, 460, 461, 462, 464, 465, 466, 466, 468, 469, 469, 470, 471, 472, 473, 473, 475, 476, 477, 477, 478, 480, 481, 481, 482, 483, 483, 484, 485, 485, 486, 487, 487, 488, 489, 489, 490, 491, 491, 492, 493, 493, 494, 495, 495, 496, 497, 497, 498, 499, 499, 500, 501, 502, 503, 504, 504, 506, 507, 508, 508, 509, 510, 510, 511, 512, 513, 514, 514, 515, 516, 516, 517, 518, 518, 519, 520, 520, 521, 522, 523, 524, 524, 525, 526, 526, 527, 528, 528, 529, 530, 530, 532, 533, 534, 534, 535, 536, 537, 538, 538, 540, 541, 542, 543, 543, 545, 545, 546, 547, 547, 548, 549, 549, 551, 551, 552, 553, 553, 554, 555, 555, 556, 557, 558, 559, 559, 560, 561, 561, 562, 563, 563, 564, 565, 565, 566, 567, 567, 568, 569, 569, 570, 571, 571, 573, 573, 574, 576, 576, 577, 578, 578, 580, 580, 581, 582, 582, 583, 585, 586, 586, 588, 588, 589, 592, 592, 593, 594, 594, 595, 596, 596, 598, 598, 599, 600, 600, 602, 604, 604, 605, 606, 607, 608, 609, 610, 610, 612, 613, 615, 616, 617, 619, 620, 621, 622, 623, 624, 625, 627, 628, 629, 630, 632, 633, 634, 635, 636, 637, 639, 641, 642, 643, 644, 645, 2, 36, 3, 4, 38, 5, 6, 40, 7, 8, 42, 9, 11, 12, 46, 13, 14, 48, 15, 16, 50, 17, 52, 19, 20, 54, 21, 22, 56, 23, 24, 58, 25, 26, 60, 28, 62, 29, 30, 31, 32, 33, 34, 68, 35, 70, 37, 38, 73, 39, 40, 75, 41, 42, 77, 43, 44, 79, 45, 46, 81, 47, 48, 83, 49, 50, 85, 51, 52, 87, 53, 54, 89, 55, 56, 91, 57, 58, 93, 59, 60, 95, 61, 62, 63, 64, 99, 65, 66, 101, 67, 68, 103, 69, 105, 71, 107, 73, 108, 74, 75, 110, 76, 77, 112, 78, 79, 114, 80, 81, 116, 82, 83, 84, 85, 120, 86, 87, 122, 88, 89, 124, 91, 126, 92, 93, 128, 94, 95, 130, 96, 97, 98, 99, 134, 100, 101, 136, 102, 103, 138, 104, 140, 106, 107, 142, 109, 110, 145, 111, 112, 147, 113, 114, 149, 115, 116, 117, 118, 153, 119, 120, 121, 122, 157, 123, 124, 159, 125, 126, 161, 127, 128, 163, 129, 130, 165, 132, 167, 133, 169, 135, 171, 137, 138, 173, 139, 140, 175, 141, 177, 143, 145, 180, 147, 148, 149, 184, 151, 152, 153, 188, 154, 155, 190, 156, 192, 158, 159, 194, 160, 161, 196, 162, 163, 198, 165, 200, 166, 167, 202, 168, 169, 204, 206, 172, 173, 208, 174, 175, 210, 176, 177, 212, 178, 179, 181, 182, 217, 183, 184, 219, 185, 186, 221, 187, 188, 223, 189, 190, 191, 192, 227, 193, 194, 229, 196, 231, 197, 198, 233, 199, 200, 235, 201, 202, 237, 203, 204, 205, 206, 207, 208, 243, 209, 210, 245, 211, 212, 247, 213, 214, 249, 215, 251, 217, 252, 218, 219, 254, 220, 221, 256, 222, 223, 258, 224, 226, 227, 228, 264, 230, 231, 232, 233, 268, 234, 235, 270, 237, 272, 238, 239, 274, 240, 241, 276, 242, 243, 278, 244, 245, 280, 246, 247, 248, 249, 284, 250, 286, 253, 254, 255, 256, 257, 258, 293, 259, 260, 295, 261, 262, 297, 263, 264, 299, 265, 266, 301, 268, 269, 270, 305, 271, 272, 307, 273, 274, 309, 275, 311, 277, 278, 313, 279, 280, 315, 281, 282, 317, 283, 284, 319, 285, 286, 321, 287, 323, 289, 324, 290, 291, 326, 292, 293, 328, 294, 330, 296, 297, 332, 298, 299, 334, 300, 301, 336, 302, 303, 338, 305, 340, 307, 342, 309, 344, 310, 311, 346, 312, 313, 348, 314, 315, 350, 317, 352, 318, 319, 354, 321, 356, 322, 323, 358, 325, 326, 361, 327, 328, 363, 329, 330, 365, 331, 332, 367, 333, 334, 369, 335, 336, 371, 337, 338, 339, 340, 375, 342, 377, 343, 344, 379, 345, 346, 381, 347, 348, 383, 349, 385, 351, 387, 353, 354, 389, 356, 391, 357, 358, 393, 359, 395, 361, 362, 363, 398, 364, 365, 400, 366, 367, 402, 369, 404, 370, 371, 406, 372, 373, 408, 374, 375, 410, 412, 378, 379, 380, 381, 416, 382, 383, 418, 384, 420, 386, 387, 422, 389, 424, 391, 426, 392, 393, 428, 394, 395, 397, 398, 433, 399, 400, 435, 401, 402, 437, 404, 439, 405, 406, 441, 407, 408, 443, 409, 410, 445, 412, 447, 413, 414, 449, 415, 416, 451, 417, 418, 419, 455, 421, 422, 423, 424, 459, 425, 426, 461, 427, 428, 463, 429, 430, 465, 431, 467, 468, 434, 470, 436, 437, 472, 438, 439, 474, 440, 441, 476, 442, 443, 478, 444, 445, 480, 447, 482, 448, 449, 450, 451, 486, 452, 453, 488, 454, 455, 490, 457, 492, 458, 494, 461, 496, 462, 498, 500, 466, 467, 502, 469, 470, 505, 471, 472, 473, 474, 509, 476, 477, 478, 513, 479, 481, 482, 517, 483, 484, 519, 485, 486, 521, 487, 488, 523, 489, 490, 525, 491, 492, 527, 493, 494, 529, 495, 496, 531, 497, 498, 533, 499, 500, 535, 501, 537, 503, 539, 505, 540, 507, 508, 509, 544, 510, 511, 546, 512, 513, 514, 515, 550, 516, 517, 552, 518, 519, 554, 520, 521, 556, 522, 523, 524, 525, 560, 526, 527, 562, 528, 529, 564, 530, 531, 566, 568, 534, 535, 570, 536, 572, 538, 539, 574, 541, 577, 543, 544, 579, 546, 581, 547, 548, 583, 549, 550, 585, 552, 587, 553, 554, 589, 555, 556, 591, 557, 593, 559, 560, 595, 561, 562, 597, 563, 564, 599, 565, 566, 601, 567, 568, 603, 569, 570, 605, 571, 572, 607, 574, 609, 575, 577, 612, 578, 579, 614, 581, 616, 582, 583, 618, 584, 586, 587, 622, 589, 624, 590, 593, 628, 594, 595, 630, 596, 597, 632, 599, 634, 600, 601, 636, 603, 605, 640, 606, 642, 608, 609, 610, 611, 646, 613, 614, 616, 617, 618, 620, 621, 622, 623, 624, 625, 626, 628, 629, 630, 631, 633, 634, 635, 636, 637, 638, 640, 642, 643, 644, 645, 646];
Edge_End = [2, 36, 3, 4, 38, 5, 6, 40, 7, 8, 42, 9, 11, 12, 46, 13, 14, 48, 15, 16, 50, 17, 52, 19, 20, 54, 21, 22, 56, 23, 24, 58, 25, 26, 60, 28, 62, 29, 30, 31, 32, 33, 34, 68, 35, 70, 37, 38, 73, 39, 40, 75, 41, 42, 77, 43, 44, 79, 45, 46, 81, 47, 48, 83, 49, 50, 85, 51, 52, 87, 53, 54, 89, 55, 56, 91, 57, 58, 93, 59, 60, 95, 61, 62, 63, 64, 99, 65, 66, 101, 67, 68, 103, 69, 105, 71, 107, 73, 108, 74, 75, 110, 76, 77, 112, 78, 79, 114, 80, 81, 116, 82, 83, 84, 85, 120, 86, 87, 122, 88, 89, 124, 91, 126, 92, 93, 128, 94, 95, 130, 96, 97, 98, 99, 134, 100, 101, 136, 102, 103, 138, 104, 140, 106, 107, 142, 109, 110, 145, 111, 112, 147, 113, 114, 149, 115, 116, 117, 118, 153, 119, 120, 121, 122, 157, 123, 124, 159, 125, 126, 161, 127, 128, 163, 129, 130, 165, 132, 167, 133, 169, 135, 171, 137, 138, 173, 139, 140, 175, 141, 177, 143, 145, 180, 147, 148, 149, 184, 151, 152, 153, 188, 154, 155, 190, 156, 192, 158, 159, 194, 160, 161, 196, 162, 163, 198, 165, 200, 166, 167, 202, 168, 169, 204, 206, 172, 173, 208, 174, 175, 210, 176, 177, 212, 178, 179, 181, 182, 217, 183, 184, 219, 185, 186, 221, 187, 188, 223, 189, 190, 191, 192, 227, 193, 194, 229, 196, 231, 197, 198, 233, 199, 200, 235, 201, 202, 237, 203, 204, 205, 206, 207, 208, 243, 209, 210, 245, 211, 212, 247, 213, 214, 249, 215, 251, 217, 252, 218, 219, 254, 220, 221, 256, 222, 223, 258, 224, 226, 227, 228, 264, 230, 231, 232, 233, 268, 234, 235, 270, 237, 272, 238, 239, 274, 240, 241, 276, 242, 243, 278, 244, 245, 280, 246, 247, 248, 249, 284, 250, 286, 253, 254, 255, 256, 257, 258, 293, 259, 260, 295, 261, 262, 297, 263, 264, 299, 265, 266, 301, 268, 269, 270, 305, 271, 272, 307, 273, 274, 309, 275, 311, 277, 278, 313, 279, 280, 315, 281, 282, 317, 283, 284, 319, 285, 286, 321, 287, 323, 289, 324, 290, 291, 326, 292, 293, 328, 294, 330, 296, 297, 332, 298, 299, 334, 300, 301, 336, 302, 303, 338, 305, 340, 307, 342, 309, 344, 310, 311, 346, 312, 313, 348, 314, 315, 350, 317, 352, 318, 319, 354, 321, 356, 322, 323, 358, 325, 326, 361, 327, 328, 363, 329, 330, 365, 331, 332, 367, 333, 334, 369, 335, 336, 371, 337, 338, 339, 340, 375, 342, 377, 343, 344, 379, 345, 346, 381, 347, 348, 383, 349, 385, 351, 387, 353, 354, 389, 356, 391, 357, 358, 393, 359, 395, 361, 362, 363, 398, 364, 365, 400, 366, 367, 402, 369, 404, 370, 371, 406, 372, 373, 408, 374, 375, 410, 412, 378, 379, 380, 381, 416, 382, 383, 418, 384, 420, 386, 387, 422, 389, 424, 391, 426, 392, 393, 428, 394, 395, 397, 398, 433, 399, 400, 435, 401, 402, 437, 404, 439, 405, 406, 441, 407, 408, 443, 409, 410, 445, 412, 447, 413, 414, 449, 415, 416, 451, 417, 418, 419, 455, 421, 422, 423, 424, 459, 425, 426, 461, 427, 428, 463, 429, 430, 465, 431, 467, 468, 434, 470, 436, 437, 472, 438, 439, 474, 440, 441, 476, 442, 443, 478, 444, 445, 480, 447, 482, 448, 449, 450, 451, 486, 452, 453, 488, 454, 455, 490, 457, 492, 458, 494, 461, 496, 462, 498, 500, 466, 467, 502, 469, 470, 505, 471, 472, 473, 474, 509, 476, 477, 478, 513, 479, 481, 482, 517, 483, 484, 519, 485, 486, 521, 487, 488, 523, 489, 490, 525, 491, 492, 527, 493, 494, 529, 495, 496, 531, 497, 498, 533, 499, 500, 535, 501, 537, 503, 539, 505, 540, 507, 508, 509, 544, 510, 511, 546, 512, 513, 514, 515, 550, 516, 517, 552, 518, 519, 554, 520, 521, 556, 522, 523, 524, 525, 560, 526, 527, 562, 528, 529, 564, 530, 531, 566, 568, 534, 535, 570, 536, 572, 538, 539, 574, 541, 577, 543, 544, 579, 546, 581, 547, 548, 583, 549, 550, 585, 552, 587, 553, 554, 589, 555, 556, 591, 557, 593, 559, 560, 595, 561, 562, 597, 563, 564, 599, 565, 566, 601, 567, 568, 603, 569, 570, 605, 571, 572, 607, 574, 609, 575, 577, 612, 578, 579, 614, 581, 616, 582, 583, 618, 584, 586, 587, 622, 589, 624, 590, 593, 628, 594, 595, 630, 596, 597, 632, 599, 634, 600, 601, 636, 603, 605, 640, 606, 642, 608, 609, 610, 611, 646, 613, 614, 616, 617, 618, 620, 621, 622, 623, 624, 625, 626, 628, 629, 630, 631, 633, 634, 635, 636, 637, 638, 640, 642, 643, 644, 645, 646, 1, 1, 2, 3, 3, 4, 5, 5, 6, 7, 7, 8, 10, 11, 11, 12, 13, 13, 14, 15, 15, 16, 17, 18, 19, 19, 20, 21, 21, 22, 23, 23, 24, 25, 25, 27, 27, 28, 29, 30, 31, 32, 33, 33, 34, 35, 36, 37, 37, 38, 39, 39, 40, 41, 41, 42, 43, 43, 44, 45, 45, 46, 47, 47, 48, 49, 49, 50, 51, 51, 52, 53, 53, 54, 55, 55, 56, 57, 57, 58, 59, 59, 60, 61, 62, 63, 63, 64, 65, 65, 66, 67, 67, 68, 69, 70, 71, 72, 72, 73, 74, 74, 75, 76, 76, 77, 78, 78, 79, 80, 80, 81, 82, 83, 84, 84, 85, 86, 86, 87, 88, 88, 90, 90, 91, 92, 92, 93, 94, 94, 95, 96, 97, 98, 98, 99, 100, 100, 101, 102, 102, 103, 104, 105, 106, 106, 108, 109, 109, 110, 111, 111, 112, 113, 113, 114, 115, 116, 117, 117, 118, 119, 120, 121, 121, 122, 123, 123, 124, 125, 125, 126, 127, 127, 128, 129, 129, 131, 131, 132, 133, 134, 135, 136, 137, 137, 138, 139, 139, 140, 141, 142, 144, 144, 146, 147, 148, 148, 150, 151, 152, 152, 153, 154, 154, 155, 156, 157, 158, 158, 159, 160, 160, 161, 162, 162, 164, 164, 165, 166, 166, 167, 168, 168, 170, 171, 172, 172, 173, 174, 174, 175, 176, 176, 177, 178, 180, 181, 181, 182, 183, 183, 184, 185, 185, 186, 187, 187, 188, 189, 190, 191, 191, 192, 193, 193, 195, 195, 196, 197, 197, 198, 199, 199, 200, 201, 201, 202, 203, 204, 205, 206, 207, 207, 208, 209, 209, 210, 211, 211, 212, 213, 213, 214, 215, 216, 216, 217, 218, 218, 219, 220, 220, 221, 222, 222, 223, 225, 226, 227, 228, 229, 230, 231, 232, 232, 233, 234, 234, 236, 236, 237, 238, 238, 239, 240, 240, 241, 242, 242, 243, 244, 244, 245, 246, 247, 248, 248, 249, 250, 252, 253, 254, 255, 256, 257, 257, 258, 259, 259, 260, 261, 261, 262, 263, 263, 264, 265, 265, 267, 268, 269, 269, 270, 271, 271, 272, 273, 273, 274, 275, 276, 277, 277, 278, 279, 279, 280, 281, 281, 282, 283, 283, 284, 285, 285, 286, 287, 288, 288, 289, 290, 290, 291, 292, 292, 293, 294, 295, 296, 296, 297, 298, 298, 299, 300, 300, 301, 302, 302, 304, 304, 306, 306, 308, 308, 309, 310, 310, 311, 312, 312, 313, 314, 314, 316, 316, 317, 318, 318, 320, 320, 321, 322, 322, 324, 325, 325, 326, 327, 327, 328, 329, 329, 330, 331, 331, 332, 333, 333, 334, 335, 335, 336, 337, 338, 339, 339, 341, 341, 342, 343, 343, 344, 345, 345, 346, 347, 347, 348, 349, 350, 351, 352, 353, 353, 355, 355, 356, 357, 357, 358, 359, 360, 361, 362, 362, 363, 364, 364, 365, 366, 366, 368, 368, 369, 370, 370, 371, 372, 372, 373, 374, 374, 376, 377, 378, 379, 380, 380, 381, 382, 382, 383, 384, 385, 386, 386, 388, 388, 390, 390, 391, 392, 392, 393, 394, 396, 397, 397, 398, 399, 399, 400, 401, 401, 403, 403, 404, 405, 405, 406, 407, 407, 408, 409, 409, 411, 411, 412, 413, 413, 414, 415, 415, 416, 417, 418, 419, 420, 421, 422, 423, 423, 424, 425, 425, 426, 427, 427, 428, 429, 429, 430, 431, 432, 433, 434, 435, 436, 436, 437, 438, 438, 439, 440, 440, 441, 442, 442, 443, 444, 444, 446, 446, 447, 448, 449, 450, 450, 451, 452, 452, 453, 454, 454, 456, 456, 457, 458, 460, 460, 461, 462, 464, 465, 466, 466, 468, 469, 469, 470, 471, 472, 473, 473, 475, 476, 477, 477, 478, 480, 481, 481, 482, 483, 483, 484, 485, 485, 486, 487, 487, 488, 489, 489, 490, 491, 491, 492, 493, 493, 494, 495, 495, 496, 497, 497, 498, 499, 499, 500, 501, 502, 503, 504, 504, 506, 507, 508, 508, 509, 510, 510, 511, 512, 513, 514, 514, 515, 516, 516, 517, 518, 518, 519, 520, 520, 521, 522, 523, 524, 524, 525, 526, 526, 527, 528, 528, 529, 530, 530, 532, 533, 534, 534, 535, 536, 537, 538, 538, 540, 541, 542, 543, 543, 545, 545, 546, 547, 547, 548, 549, 549, 551, 551, 552, 553, 553, 554, 555, 555, 556, 557, 558, 559, 559, 560, 561, 561, 562, 563, 563, 564, 565, 565, 566, 567, 567, 568, 569, 569, 570, 571, 571, 573, 573, 574, 576, 576, 577, 578, 578, 580, 580, 581, 582, 582, 583, 585, 586, 586, 588, 588, 589, 592, 592, 593, 594, 594, 595, 596, 596, 598, 598, 599, 600, 600, 602, 604, 604, 605, 606, 607, 608, 609, 610, 610, 612, 613, 615, 616, 617, 619, 620, 621, 622, 623, 624, 625, 627, 628, 629, 630, 632, 633, 634, 635, 636, 637, 639, 641, 642, 643, 644, 645];
L = [7, 16, 9, 5, 19, 6, 15, 6, 11, 6, 2, 9, 16, 12, 6, 19, 17, 1, 2, 5, 19, 19, 15, 13, 10, 18, 8, 2, 13, 14, 11, 6, 5, 18, 6, 2, 11, 16, 15, 15, 6, 3, 17, 14, 11, 13, 12, 9, 15, 14, 1, 9, 8, 14, 13, 1, 1, 19, 7, 18, 15, 2, 8, 5, 1, 5, 15, 2, 7, 16, 7, 11, 16, 17, 12, 15, 8, 7, 10, 8, 13, 14, 12, 12, 7, 9, 2, 1, 18, 3, 1, 12, 1, 15, 8, 14, 19, 7, 11, 4, 1, 1, 14, 3, 7, 14, 5, 7, 1, 12, 2, 1, 9, 6, 6, 6, 13, 11, 16, 9, 1, 17, 14, 2, 3, 1, 2, 2, 8, 14, 9, 5, 18, 11, 17, 17, 1, 3, 2, 18, 2, 3, 13, 1, 10, 13, 5, 8, 12, 14, 18, 6, 6, 13, 14, 6, 1, 16, 9, 8, 18, 18, 17, 12, 1, 16, 12, 15, 16, 4, 17, 8, 11, 1, 9, 3, 12, 15, 8, 11, 9, 17, 17, 7, 8, 7, 3, 5, 12, 1, 9, 15, 6, 2, 13, 14, 14, 12, 6, 17, 8, 16, 6, 7, 15, 18, 11, 11, 16, 13, 2, 11, 18, 15, 1, 12, 8, 9, 2, 18, 7, 18, 4, 15, 4, 1, 1, 16, 16, 18, 11, 8, 11, 11, 5, 11, 17, 6, 2, 15, 7, 13, 10, 12, 4, 6, 11, 12, 16, 11, 12, 12, 9, 1, 17, 18, 3, 12, 18, 7, 16, 6, 4, 5, 5, 4, 5, 4, 7, 16, 8, 2, 17, 19, 12, 4, 8, 7, 10, 6, 11, 9, 9, 3, 2, 14, 17, 8, 16, 19, 1, 16, 11, 18, 7, 11, 12, 7, 17, 7, 2, 2, 12, 1, 7, 4, 5, 2, 16, 19, 6, 1, 3, 6, 4, 16, 15, 16, 17, 8, 4, 18, 7, 1, 7, 16, 14, 14, 1, 16, 5, 15, 7, 14, 3, 13, 5, 13, 6, 9, 4, 1, 3, 5, 3, 4, 4, 11, 19, 3, 17, 11, 11, 16, 1, 18, 10, 11, 16, 13, 9, 13, 9, 4, 15, 9, 1, 7, 12, 13, 2, 7, 7, 2, 12, 9, 10, 11, 18, 2, 12, 18, 2, 16, 3, 7, 18, 16, 1, 12, 6, 1, 16, 4, 9, 14, 9, 14, 13, 19, 7, 4, 6, 5, 11, 18, 3, 1, 18, 5, 15, 13, 15, 7, 19, 8, 13, 6, 15, 6, 9, 19, 9, 16, 19, 7, 4, 6, 11, 3, 16, 16, 5, 3, 10, 17, 19, 6, 6, 5, 8, 5, 15, 1, 9, 15, 8, 10, 12, 8, 12, 1, 15, 1, 11, 6, 12, 5, 10, 8, 4, 17, 4, 14, 10, 13, 15, 16, 12, 19, 9, 15, 6, 12, 1, 15, 4, 1, 17, 19, 17, 10, 3, 5, 14, 14, 7, 3, 14, 13, 7, 1, 16, 4, 2, 14, 8, 15, 18, 18, 9, 11, 18, 8, 7, 4, 1, 15, 3, 12, 10, 13, 1, 12, 16, 16, 1, 3, 18, 12, 5, 5, 18, 16, 9, 10, 2, 11, 1, 1, 1, 2, 14, 3, 17, 4, 8, 3, 3, 10, 4, 10, 4, 9, 8, 7, 17, 3, 15, 4, 17, 15, 15, 11, 17, 6, 12, 16, 14, 14, 15, 8, 7, 2, 6, 6, 16, 7, 15, 18, 5, 9, 10, 9, 10, 12, 5, 17, 15, 3, 13, 18, 8, 2, 12, 10, 4, 12, 5, 1, 5, 14, 6, 1, 11, 10, 4, 2, 13, 5, 18, 15, 8, 18, 4, 14, 4, 5, 8, 12, 6, 8, 13, 3, 11, 7, 9, 1, 14, 6, 17, 8, 18, 3, 10, 14, 2, 18, 5, 11, 9, 12, 7, 7, 11, 6, 18, 5, 2, 6, 1, 10, 17, 17, 8, 11, 3, 6, 12, 17, 14, 17, 12, 2, 12, 13, 14, 2, 10, 2, 14, 7, 1, 8, 15, 16, 6, 13, 3, 11, 3, 4, 2, 18, 19, 15, 19, 7, 8, 16, 18, 12, 19, 3, 13, 9, 16, 11, 19, 16, 9, 5, 13, 8, 14, 1, 12, 4, 13, 1, 12, 8, 6, 2, 13, 19, 14, 13, 1, 3, 8, 3, 13, 6, 1, 7, 2, 1, 19, 1, 4, 11, 15, 7, 4, 7, 19, 10, 7, 3, 10, 4, 18, 9, 3, 4, 5, 13, 17, 15, 10, 8, 13, 16, 15, 8, 14, 4, 2, 3, 2, 13, 2, 14, 5, 3, 6, 19, 1, 2, 4, 1, 1, 8, 18, 8, 10, 12, 12, 10, 18, 19, 4, 5, 2, 1, 16, 13, 9, 9, 11, 11, 9, 14, 15, 11, 4, 10, 2, 10, 8, 3, 11, 2, 8, 14, 16, 1, 3, 6, 13, 6, 11, 4, 12, 12, 1, 16, 4, 7, 4, 14, 17, 6, 3, 10, 7, 16, 9, 5, 19, 6, 15, 6, 11, 6, 2, 9, 16, 12, 6, 19, 17, 1, 2, 5, 19, 19, 15, 13, 10, 18, 8, 2, 13, 14, 11, 6, 5, 18, 6, 2, 11, 16, 15, 15, 6, 3, 17, 14, 11, 13, 12, 9, 15, 14, 1, 9, 8, 14, 13, 1, 1, 19, 7, 18, 15, 2, 8, 5, 1, 5, 15, 2, 7, 16, 7, 11, 16, 17, 12, 15, 8, 7, 10, 8, 13, 14, 12, 12, 7, 9, 2, 1, 18, 3, 1, 12, 1, 15, 8, 14, 19, 7, 11, 4, 1, 1, 14, 3, 7, 14, 5, 7, 1, 12, 2, 1, 9, 6, 6, 6, 13, 11, 16, 9, 1, 17, 14, 2, 3, 1, 2, 2, 8, 14, 9, 5, 18, 11, 17, 17, 1, 3, 2, 18, 2, 3, 13, 1, 10, 13, 5, 8, 12, 14, 18, 6, 6, 13, 14, 6, 1, 16, 9, 8, 18, 18, 17, 12, 1, 16, 12, 15, 16, 4, 17, 8, 11, 1, 9, 3, 12, 15, 8, 11, 9, 17, 17, 7, 8, 7, 3, 5, 12, 1, 9, 15, 6, 2, 13, 14, 14, 12, 6, 17, 8, 16, 6, 7, 15, 18, 11, 11, 16, 13, 2, 11, 18, 15, 1, 12, 8, 9, 2, 18, 7, 18, 4, 15, 4, 1, 1, 16, 16, 18, 11, 8, 11, 11, 5, 11, 17, 6, 2, 15, 7, 13, 10, 12, 4, 6, 11, 12, 16, 11, 12, 12, 9, 1, 17, 18, 3, 12, 18, 7, 16, 6, 4, 5, 5, 4, 5, 4, 7, 16, 8, 2, 17, 19, 12, 4, 8, 7, 10, 6, 11, 9, 9, 3, 2, 14, 17, 8, 16, 19, 1, 16, 11, 18, 7, 11, 12, 7, 17, 7, 2, 2, 12, 1, 7, 4, 5, 2, 16, 19, 6, 1, 3, 6, 4, 16, 15, 16, 17, 8, 4, 18, 7, 1, 7, 16, 14, 14, 1, 16, 5, 15, 7, 14, 3, 13, 5, 13, 6, 9, 4, 1, 3, 5, 3, 4, 4, 11, 19, 3, 17, 11, 11, 16, 1, 18, 10, 11, 16, 13, 9, 13, 9, 4, 15, 9, 1, 7, 12, 13, 2, 7, 7, 2, 12, 9, 10, 11, 18, 2, 12, 18, 2, 16, 3, 7, 18, 16, 1, 12, 6, 1, 16, 4, 9, 14, 9, 14, 13, 19, 7, 4, 6, 5, 11, 18, 3, 1, 18, 5, 15, 13, 15, 7, 19, 8, 13, 6, 15, 6, 9, 19, 9, 16, 19, 7, 4, 6, 11, 3, 16, 16, 5, 3, 10, 17, 19, 6, 6, 5, 8, 5, 15, 1, 9, 15, 8, 10, 12, 8, 12, 1, 15, 1, 11, 6, 12, 5, 10, 8, 4, 17, 4, 14, 10, 13, 15, 16, 12, 19, 9, 15, 6, 12, 1, 15, 4, 1, 17, 19, 17, 10, 3, 5, 14, 14, 7, 3, 14, 13, 7, 1, 16, 4, 2, 14, 8, 15, 18, 18, 9, 11, 18, 8, 7, 4, 1, 15, 3, 12, 10, 13, 1, 12, 16, 16, 1, 3, 18, 12, 5, 5, 18, 16, 9, 10, 2, 11, 1, 1, 1, 2, 14, 3, 17, 4, 8, 3, 3, 10, 4, 10, 4, 9, 8, 7, 17, 3, 15, 4, 17, 15, 15, 11, 17, 6, 12, 16, 14, 14, 15, 8, 7, 2, 6, 6, 16, 7, 15, 18, 5, 9, 10, 9, 10, 12, 5, 17, 15, 3, 13, 18, 8, 2, 12, 10, 4, 12, 5, 1, 5, 14, 6, 1, 11, 10, 4, 2, 13, 5, 18, 15, 8, 18, 4, 14, 4, 5, 8, 12, 6, 8, 13, 3, 11, 7, 9, 1, 14, 6, 17, 8, 18, 3, 10, 14, 2, 18, 5, 11, 9, 12, 7, 7, 11, 6, 18, 5, 2, 6, 1, 10, 17, 17, 8, 11, 3, 6, 12, 17, 14, 17, 12, 2, 12, 13, 14, 2, 10, 2, 14, 7, 1, 8, 15, 16, 6, 13, 3, 11, 3, 4, 2, 18, 19, 15, 19, 7, 8, 16, 18, 12, 19, 3, 13, 9, 16, 11, 19, 16, 9, 5, 13, 8, 14, 1, 12, 4, 13, 1, 12, 8, 6, 2, 13, 19, 14, 13, 1, 3, 8, 3, 13, 6, 1, 7, 2, 1, 19, 1, 4, 11, 15, 7, 4, 7, 19, 10, 7, 3, 10, 4, 18, 9, 3, 4, 5, 13, 17, 15, 10, 8, 13, 16, 15, 8, 14, 4, 2, 3, 2, 13, 2, 14, 5, 3, 6, 19, 1, 2, 4, 1, 1, 8, 18, 8, 10, 12, 12, 10, 18, 19, 4, 5, 2, 1, 16, 13, 9, 9, 11, 11, 9, 14, 15, 11, 4, 10, 2, 10, 8, 3, 11, 2, 8, 14, 16, 1, 3, 6, 13, 6, 11, 4, 12, 12, 1, 16, 4, 7, 4, 14, 17, 6, 3, 10];
T = [1, 17, 11, 10, 18, 2, 23, 4, 9, 8, 1, 8, 22, 14, 14, 17, 15, 8, 2, 1, 22, 4, 15, 14, 1, 28, 16, 6, 24, 14, 12, 4, 4, 15, 3, 1, 15, 19, 16, 4, 6, 4, 13, 19, 13, 12, 5, 1, 25, 9, 13, 2, 12, 12, 11, 1, 7, 20, 5, 11, 3, 4, 11, 11, 1, 1, 8, 1, 5, 21, 5, 10, 18, 18, 13, 14, 6, 9, 7, 5, 13, 7, 12, 10, 13, 15, 1, 2, 22, 1, 4, 10, 1, 18, 9, 11, 27, 9, 13, 1, 3, 6, 11, 5, 8, 21, 1, 5, 1, 1, 6, 1, 1, 8, 5, 7, 2, 8, 21, 7, 2, 6, 11, 3, 1, 1, 4, 1, 7, 8, 16, 1, 19, 6, 23, 17, 1, 1, 4, 22, 7, 5, 12, 2, 17, 16, 2, 5, 19, 16, 20, 1, 3, 12, 13, 12, 4, 15, 12, 10, 14, 18, 8, 10, 2, 20, 13, 10, 11, 1, 14, 9, 9, 1, 9, 1, 17, 18, 4, 17, 18, 9, 17, 2, 11, 1, 1, 3, 22, 1, 12, 21, 1, 4, 14, 9, 12, 6, 8, 24, 20, 21, 1, 15, 16, 20, 19, 13, 16, 15, 3, 23, 14, 21, 11, 14, 12, 7, 1, 23, 1, 21, 3, 12, 1, 1, 1, 17, 26, 9, 18, 12, 13, 12, 1, 20, 14, 14, 3, 20, 20, 15, 17, 12, 15, 2, 13, 15, 8, 2, 16, 9, 6, 12, 9, 18, 6, 7, 12, 4, 15, 1, 4, 1, 12, 3, 13, 2, 1, 22, 4, 1, 22, 19, 11, 1, 10, 7, 9, 12, 9, 7, 5, 4, 1, 14, 20, 10, 17, 24, 1, 17, 12, 21, 5, 8, 16, 1, 16, 13, 6, 1, 13, 1, 10, 2, 9, 1, 9, 18, 1, 1, 7, 6, 3, 16, 13, 18, 15, 1, 5, 7, 4, 1, 8, 22, 10, 6, 3, 20, 8, 9, 13, 18, 5, 5, 17, 6, 3, 6, 2, 1, 11, 3, 1, 4, 3, 14, 19, 8, 19, 12, 12, 15, 3, 16, 1, 17, 17, 30, 1, 9, 11, 8, 9, 1, 4, 3, 7, 13, 1, 1, 7, 6, 16, 16, 15, 19, 15, 8, 11, 16, 2, 12, 5, 2, 24, 12, 1, 11, 4, 4, 13, 7, 11, 14, 16, 15, 15, 13, 3, 9, 5, 1, 11, 13, 9, 1, 20, 3, 27, 16, 13, 13, 12, 10, 14, 1, 13, 8, 13, 21, 8, 11, 8, 1, 4, 3, 8, 2, 7, 16, 6, 1, 3, 15, 23, 8, 1, 1, 12, 1, 21, 1, 11, 17, 4, 1, 5, 17, 4, 1, 14, 1, 13, 7, 15, 10, 12, 6, 1, 12, 2, 13, 9, 15, 14, 29, 1, 24, 1, 8, 3, 14, 8, 20, 11, 2, 17, 24, 21, 13, 1, 14, 19, 15, 9, 1, 5, 20, 2, 6, 14, 2, 1, 17, 5, 18, 26, 18, 19, 1, 28, 1, 6, 2, 1, 16, 4, 1, 7, 8, 1, 4, 20, 18, 3, 6, 17, 9, 1, 13, 16, 16, 10, 4, 3, 6, 1, 1, 1, 1, 16, 6, 29, 1, 3, 1, 1, 9, 1, 7, 1, 7, 3, 1, 18, 1, 21, 11, 9, 21, 10, 12, 8, 10, 16, 15, 10, 14, 16, 5, 9, 8, 8, 9, 10, 1, 18, 15, 26, 7, 8, 3, 6, 12, 1, 17, 8, 11, 18, 21, 4, 1, 16, 8, 1, 6, 2, 3, 2, 18, 6, 1, 12, 11, 1, 1, 16, 7, 24, 9, 18, 17, 10, 22, 7, 10, 12, 13, 7, 2, 15, 2, 10, 16, 9, 2, 18, 1, 22, 5, 20, 4, 16, 19, 1, 24, 15, 1, 3, 12, 7, 7, 12, 3, 9, 1, 1, 5, 5, 8, 16, 19, 3, 4, 1, 1, 10, 14, 15, 11, 14, 1, 7, 11, 9, 3, 10, 6, 7, 17, 1, 14, 19, 13, 2, 10, 2, 15, 1, 1, 6, 15, 11, 14, 22, 6, 6, 19, 18, 14, 14, 3, 12, 5, 14, 11, 26, 10, 8, 1, 19, 9, 18, 1, 6, 5, 15, 3, 17, 6, 8, 4, 13, 23, 17, 9, 7, 1, 7, 8, 16, 8, 6, 7, 7, 7, 20, 1, 8, 8, 10, 5, 4, 7, 24, 4, 17, 1, 14, 2, 19, 8, 7, 1, 6, 8, 15, 5, 3, 7, 13, 9, 7, 9, 4, 8, 1, 1, 1, 5, 13, 5, 1, 3, 7, 12, 3, 3, 5, 1, 10, 3, 22, 4, 10, 15, 15, 10, 23, 14, 2, 6, 1, 3, 29, 13, 9, 9, 18, 6, 7, 13, 10, 16, 1, 7, 1, 12, 4, 7, 17, 14, 13, 18, 25, 1, 3, 17, 10, 9, 11, 4, 12, 11, 1, 28, 3, 1, 3, 21, 13, 9, 5, 4, 1, 17, 11, 10, 18, 2, 23, 4, 9, 8, 1, 8, 22, 14, 14, 17, 15, 8, 2, 1, 22, 4, 15, 14, 1, 28, 16, 6, 24, 14, 12, 4, 4, 15, 3, 1, 15, 19, 16, 4, 6, 4, 13, 19, 13, 12, 5, 1, 25, 9, 13, 2, 12, 12, 11, 1, 7, 20, 5, 11, 3, 4, 11, 11, 1, 1, 8, 1, 5, 21, 5, 10, 18, 18, 13, 14, 6, 9, 7, 5, 13, 7, 12, 10, 13, 15, 1, 2, 22, 1, 4, 10, 1, 18, 9, 11, 27, 9, 13, 1, 3, 6, 11, 5, 8, 21, 1, 5, 1, 1, 6, 1, 1, 8, 5, 7, 2, 8, 21, 7, 2, 6, 11, 3, 1, 1, 4, 1, 7, 8, 16, 1, 19, 6, 23, 17, 1, 1, 4, 22, 7, 5, 12, 2, 17, 16, 2, 5, 19, 16, 20, 1, 3, 12, 13, 12, 4, 15, 12, 10, 14, 18, 8, 10, 2, 20, 13, 10, 11, 1, 14, 9, 9, 1, 9, 1, 17, 18, 4, 17, 18, 9, 17, 2, 11, 1, 1, 3, 22, 1, 12, 21, 1, 4, 14, 9, 12, 6, 8, 24, 20, 21, 1, 15, 16, 20, 19, 13, 16, 15, 3, 23, 14, 21, 11, 14, 12, 7, 1, 23, 1, 21, 3, 12, 1, 1, 1, 17, 26, 9, 18, 12, 13, 12, 1, 20, 14, 14, 3, 20, 20, 15, 17, 12, 15, 2, 13, 15, 8, 2, 16, 9, 6, 12, 9, 18, 6, 7, 12, 4, 15, 1, 4, 1, 12, 3, 13, 2, 1, 22, 4, 1, 22, 19, 11, 1, 10, 7, 9, 12, 9, 7, 5, 4, 1, 14, 20, 10, 17, 24, 1, 17, 12, 21, 5, 8, 16, 1, 16, 13, 6, 1, 13, 1, 10, 2, 9, 1, 9, 18, 1, 1, 7, 6, 3, 16, 13, 18, 15, 1, 5, 7, 4, 1, 8, 22, 10, 6, 3, 20, 8, 9, 13, 18, 5, 5, 17, 6, 3, 6, 2, 1, 11, 3, 1, 4, 3, 14, 19, 8, 19, 12, 12, 15, 3, 16, 1, 17, 17, 30, 1, 9, 11, 8, 9, 1, 4, 3, 7, 13, 1, 1, 7, 6, 16, 16, 15, 19, 15, 8, 11, 16, 2, 12, 5, 2, 24, 12, 1, 11, 4, 4, 13, 7, 11, 14, 16, 15, 15, 13, 3, 9, 5, 1, 11, 13, 9, 1, 20, 3, 27, 16, 13, 13, 12, 10, 14, 1, 13, 8, 13, 21, 8, 11, 8, 1, 4, 3, 8, 2, 7, 16, 6, 1, 3, 15, 23, 8, 1, 1, 12, 1, 21, 1, 11, 17, 4, 1, 5, 17, 4, 1, 14, 1, 13, 7, 15, 10, 12, 6, 1, 12, 2, 13, 9, 15, 14, 29, 1, 24, 1, 8, 3, 14, 8, 20, 11, 2, 17, 24, 21, 13, 1, 14, 19, 15, 9, 1, 5, 20, 2, 6, 14, 2, 1, 17, 5, 18, 26, 18, 19, 1, 28, 1, 6, 2, 1, 16, 4, 1, 7, 8, 1, 4, 20, 18, 3, 6, 17, 9, 1, 13, 16, 16, 10, 4, 3, 6, 1, 1, 1, 1, 16, 6, 29, 1, 3, 1, 1, 9, 1, 7, 1, 7, 3, 1, 18, 1, 21, 11, 9, 21, 10, 12, 8, 10, 16, 15, 10, 14, 16, 5, 9, 8, 8, 9, 10, 1, 18, 15, 26, 7, 8, 3, 6, 12, 1, 17, 8, 11, 18, 21, 4, 1, 16, 8, 1, 6, 2, 3, 2, 18, 6, 1, 12, 11, 1, 1, 16, 7, 24, 9, 18, 17, 10, 22, 7, 10, 12, 13, 7, 2, 15, 2, 10, 16, 9, 2, 18, 1, 22, 5, 20, 4, 16, 19, 1, 24, 15, 1, 3, 12, 7, 7, 12, 3, 9, 1, 1, 5, 5, 8, 16, 19, 3, 4, 1, 1, 10, 14, 15, 11, 14, 1, 7, 11, 9, 3, 10, 6, 7, 17, 1, 14, 19, 13, 2, 10, 2, 15, 1, 1, 6, 15, 11, 14, 22, 6, 6, 19, 18, 14, 14, 3, 12, 5, 14, 11, 26, 10, 8, 1, 19, 9, 18, 1, 6, 5, 15, 3, 17, 6, 8, 4, 13, 23, 17, 9, 7, 1, 7, 8, 16, 8, 6, 7, 7, 7, 20, 1, 8, 8, 10, 5, 4, 7, 24, 4, 17, 1, 14, 2, 19, 8, 7, 1, 6, 8, 15, 5, 3, 7, 13, 9, 7, 9, 4, 8, 1, 1, 1, 5, 13, 5, 1, 3, 7, 12, 3, 3, 5, 1, 10, 3, 22, 4, 10, 15, 15, 10, 23, 14, 2, 6, 1, 3, 29, 13, 9, 9, 18, 6, 7, 13, 10, 16, 1, 7, 1, 12, 4, 7, 17, 14, 13, 18, 25, 1, 3, 17, 10, 9, 11, 4, 12, 11, 1, 28, 3, 1, 3, 21, 13, 9, 5, 4];
Lower_Bound = [0, 1, 13, 23, 26, 47, 53, 61, 69, 112, 90, 104, 99, 114, 114, 116, 113, 155, 141, 142, 158, 164, 154, 166, 165, 180, 199, 201, 221, 236, 241, 245, 250, 262, 275, 17, 22, 23, 32, 30, 43, 52, 53, 60, 66, 80, 80, 91, 91, 92, 93, 98, 103, 113, 131, 144, 141, 150, 149, 162, 174, 184, 185, 200, 203, 224, 228, 238, 256, 288, 299, 48, 38, 37, 34, 45, 50, 71, 71, 69, 69, 70, 70, 78, 83, 86, 94, 100, 103, 121, 132, 133, 134, 135, 142, 159, 159, 178, 184, 201, 202, 207, 228, 230, 265, 267, 284, 50, 48, 43, 59, 53, 56, 69, 80, 75, 90, 102, 103, 87, 93, 104, 119, 106, 119, 118, 127, 136, 144, 143, 189, 207, 200, 201, 210, 202, 204, 214, 214, 217, 219, 283, 304, 68, 69, 74, 60, 69, 69, 152, 144, 121, 100, 101, 116, 136, 95, 108, 125, 128, 131, 139, 128, 165, 162, 163, 185, 178, 182, 193, 207, 207, 206, 231, 237, 243, 230, 231, 251, 72, 86, 100, 95, 75, 92, 104, 107, 119, 122, 117, 133, 144, 133, 124, 148, 141, 153, 154, 154, 158, 166, 163, 165, 166, 188, 193, 193, 217, 229, 227, 234, 243, 252, 259, 264, 103, 90, 99, 110, 111, 107, 126, 121, 137, 156, 155, 139, 153, 151, 151, 154, 155, 166, 156, 155, 184, 182, 180, 187, 190, 206, 225, 212, 218, 225, 225, 233, 239, 249, 252, 265, 123, 131, 123, 136, 123, 129, 133, 139, 142, 144, 146, 148, 149, 152, 167, 165, 158, 176, 167, 180, 183, 184, 186, 212, 203, 213, 223, 222, 222, 224, 231, 232, 233, 239, 255, 270, 175, 175, 164, 164, 150, 145, 173, 146, 146, 155, 159, 153, 164, 171, 187, 201, 191, 188, 201, 196, 214, 201, 210, 211, 214, 220, 234, 226, 248, 237, 241, 239, 268, 255, 266, 274, 167, 166, 162, 155, 152, 168, 169, 166, 150, 159, 159, 171, 172, 174, 184, 201, 200, 207, 202, 206, 209, 208, 221, 236, 231, 236, 245, 242, 262, 256, 248, 305, 289, 290, 271, 279, 184, 169, 178, 161, 163, 169, 190, 188, 174, 159, 175, 183, 188, 208, 214, 203, 249, 225, 227, 222, 238, 215, 234, 236, 236, 237, 239, 240, 275, 270, 301, 296, 295, 291, 285, 282, 212, 205, 188, 189, 189, 201, 191, 180, 177, 176, 175, 176, 190, 217, 216, 247, 248, 257, 259, 259, 256, 258, 262, 265, 244, 253, 255, 276, 275, 284, 294, 308, 315, 331, 336, 344, 260, 216, 224, 205, 218, 201, 194, 186, 189, 177, 190, 183, 201, 220, 245, 246, 256, 255, 263, 262, 264, 283, 283, 284, 298, 299, 314, 288, 324, 299, 317, 324, 371, 341, 359, 355, 250, 238, 227, 225, 210, 207, 198, 199, 190, 193, 201, 223, 204, 211, 230, 235, 254, 267, 264, 267, 271, 279, 289, 296, 297, 303, 307, 323, 332, 335, 334, 344, 358, 370, 370, 372, 256, 246, 242, 239, 229, 223, 226, 225, 206, 193, 195, 206, 214, 213, 219, 236, 245, 266, 272, 274, 292, 282, 283, 295, 309, 310, 321, 326, 352, 336, 342, 359, 366, 384, 380, 377, 265, 273, 253, 249, 237, 246, 229, 222, 221, 213, 197, 224, 215, 223, 231, 230, 238, 250, 312, 307, 306, 305, 288, 302, 304, 312, 319, 325, 334, 339, 341, 354, 363, 389, 398, 405, 280, 279, 277, 272, 244, 241, 237, 229, 234, 222, 224, 228, 252, 242, 265, 240, 258, 253, 269, 284, 307, 306, 327, 322, 324, 313, 349, 340, 355, 345, 351, 361, 374, 384, 396, 397, 284, 281, 290, 249, 245, 252, 248, 271, 256, 243, 225, 250, 252, 254, 272, 280, 268, 276, 278, 282, 308, 320, 328, 329, 338, 340, 341, 375, 372, 379, 359, 371, 381, 386, 389];
Upper_Bound = [11, 6, 22, 34, 35, 59, 56, 63, 84, 127, 92, 120, 106, 121, 119, 124, 122, 156, 147, 146, 160, 166, 158, 179, 173, 186, 200, 212, 227, 237, 247, 252, 253, 264, 280, 21, 34, 28, 42, 37, 56, 56, 64, 61, 69, 84, 84, 92, 92, 94, 96, 100, 110, 116, 136, 148, 143, 151, 154, 170, 176, 193, 216, 202, 215, 225, 229, 278, 263, 301, 303, 49, 58, 39, 36, 47, 51, 73, 84, 72, 70, 72, 72, 89, 84, 87, 95, 108, 113, 124, 144, 140, 136, 139, 143, 160, 164, 180, 191, 202, 206, 211, 231, 231, 271, 270, 298, 54, 55, 53, 60, 56, 66, 71, 81, 77, 102, 111, 119, 89, 101, 112, 126, 107, 123, 120, 138, 138, 156, 144, 191, 209, 203, 204, 218, 206, 206, 225, 217, 223, 227, 293, 306, 81, 70, 76, 63, 73, 71, 153, 147, 124, 101, 106, 125, 138, 97, 127, 127, 134, 138, 141, 133, 166, 166, 168, 186, 179, 186, 196, 211, 208, 207, 235, 238, 246, 233, 235, 263, 73, 96, 103, 102, 83, 96, 108, 112, 122, 127, 118, 144, 146, 136, 125, 154, 144, 161, 163, 159, 162, 169, 170, 167, 183, 208, 203, 196, 220, 232, 228, 238, 246, 261, 260, 271, 105, 102, 103, 112, 112, 115, 128, 124, 143, 157, 164, 144, 159, 155, 161, 155, 160, 171, 160, 159, 190, 185, 181, 189, 194, 207, 228, 225, 220, 230, 237, 240, 242, 250, 253, 267, 127, 132, 124, 144, 125, 132, 141, 145, 145, 158, 149, 156, 161, 154, 172, 173, 161, 178, 172, 226, 186, 186, 188, 215, 205, 225, 228, 223, 231, 225, 250, 238, 239, 244, 261, 275, 179, 183, 167, 177, 157, 154, 180, 150, 154, 160, 164, 154, 165, 175, 194, 222, 202, 192, 209, 198, 215, 203, 217, 218, 219, 222, 238, 228, 252, 241, 244, 243, 269, 261, 267, 275, 170, 168, 167, 162, 158, 170, 181, 168, 152, 167, 168, 172, 183, 175, 200, 208, 201, 211, 207, 218, 214, 218, 222, 237, 232, 240, 251, 243, 263, 258, 253, 307, 303, 294, 272, 286, 195, 173, 179, 168, 166, 175, 192, 189, 183, 163, 187, 195, 197, 216, 215, 206, 257, 232, 230, 223, 239, 225, 238, 238, 253, 244, 240, 244, 281, 274, 304, 301, 304, 299, 286, 283, 214, 206, 200, 209, 196, 203, 194, 181, 180, 203, 184, 189, 192, 218, 225, 250, 250, 260, 260, 264, 259, 261, 273, 267, 246, 262, 256, 279, 277, 288, 300, 313, 316, 333, 342, 348, 265, 217, 228, 226, 220, 203, 196, 188, 194, 183, 193, 195, 207, 223, 247, 247, 267, 259, 270, 263, 265, 284, 286, 303, 302, 300, 329, 292, 337, 302, 323, 325, 377, 347, 370, 359, 254, 248, 229, 234, 218, 209, 201, 200, 203, 198, 207, 233, 207, 212, 235, 247, 255, 271, 272, 272, 273, 287, 298, 303, 302, 306, 315, 324, 335, 339, 336, 345, 365, 375, 388, 373, 258, 248, 252, 246, 235, 227, 243, 231, 207, 196, 196, 211, 219, 216, 227, 252, 246, 272, 277, 278, 297, 285, 287, 305, 312, 311, 342, 330, 360, 337, 346, 362, 375, 387, 383, 380, 267, 276, 260, 250, 238, 250, 241, 224, 235, 214, 200, 225, 220, 224, 238, 231, 240, 251, 321, 309, 310, 307, 292, 325, 305, 316, 325, 326, 336, 343, 342, 360, 368, 391, 402, 407, 288, 288, 278, 276, 245, 244, 250, 233, 235, 268, 226, 231, 262, 249, 268, 243, 260, 254, 271, 287, 309, 310, 330, 325, 327, 314, 352, 343, 370, 348, 362, 365, 378, 396, 408, 406, 285, 285, 291, 254, 253, 261, 252, 278, 262, 248, 236, 252, 256, 260, 280, 281, 270, 283, 281, 292, 310, 326, 329, 335, 345, 348, 343, 381, 393, 385, 360, 373, 405, 391, 409];
Start = 1;
End = 646;
Time = 409;
